(set-option :produce-models true)
(set-logic QF_LRA)
(set-info :notes | Strip-packing problem.|)
(declare-fun x0 () Real)
(declare-fun y0 () Real)
(declare-fun x1 () Real)
(declare-fun y1 () Real)
(declare-fun x2 () Real)
(declare-fun y2 () Real)
(declare-fun x3 () Real)
(declare-fun y3 () Real)
(declare-fun x4 () Real)
(declare-fun y4 () Real)
(declare-fun x5 () Real)
(declare-fun y5 () Real)
(declare-fun x6 () Real)
(declare-fun y6 () Real)
(declare-fun x7 () Real)
(declare-fun y7 () Real)
(declare-fun x8 () Real)
(declare-fun y8 () Real)
(declare-fun z () Real)
(declare-fun c () Real)
(assert (and (= c z) (and (>= x0 0) 
(and (>= y0 0) 
(and (>= x1 0) 
(and (>= y1 0) 
(and (>= x2 0) 
(and (>= y2 0) 
(and (>= x3 0) 
(and (>= y3 0) 
(and (>= x4 0) 
(and (>= y4 0) 
(and (>= x5 0) 
(and (>= y5 0) 
(and (>= x6 0) 
(and (>= y6 0) 
(and (>= x7 0) 
(and (>= y7 0) 
(and (>= x8 0) 
(and (>= y8 0) 
(and (>= z 0) 
(and (>= c 0) 
(and (<= (+ x0 0.6290393278) z) 
(and (<= 0.9992539023 y0) 
(and (<= y0 1.0) 
(and (<= x0 (- 4.1904516581 0.6290393278)) 
(and (>= x0 0) 
(and (<= (+ x1 0.2447328137) z) 
(and (<= 0.8735907933 y1) 
(and (<= y1 1.0) 
(and (<= x1 (- 4.1904516581 0.2447328137)) 
(and (>= x1 0) 
(and (<= (+ x2 0.9225782161) z) 
(and (<= 0.7863832105 y2) 
(and (<= y2 1.0) 
(and (<= x2 (- 4.1904516581 0.9225782161)) 
(and (>= x2 0) 
(and (<= (+ x3 0.8997646322) z) 
(and (<= 0.4910729428 y3) 
(and (<= y3 1.0) 
(and (<= x3 (- 4.1904516581 0.8997646322)) 
(and (>= x3 0) 
(and (<= (+ x4 0.1569270711) z) 
(and (<= 0.4772006892 y4) 
(and (<= y4 1.0) 
(and (<= x4 (- 4.1904516581 0.1569270711)) 
(and (>= x4 0) 
(and (<= (+ x5 0.5037475077) z) 
(and (<= 0.2797594291 y5) 
(and (<= y5 1.0) 
(and (<= x5 (- 4.1904516581 0.5037475077)) 
(and (>= x5 0) 
(and (<= (+ x6 0.9905891606) z) 
(and (<= 0.269315848 y6) 
(and (<= y6 1.0) 
(and (<= x6 (- 4.1904516581 0.9905891606)) 
(and (>= x6 0) 
(and (<= (+ x7 0.0552992449) z) 
(and (<= 0.1181998665 y7) 
(and (<= y7 1.0) 
(and (<= x7 (- 4.1904516581 0.0552992449)) 
(and (>= x7 0) 
(and (<= (+ x8 0.6968716629) z) 
(and (<= 0.0997863171 y8) 
(and (<= y8 1.0) 
(and (<= x8 (- 4.1904516581 0.6968716629)) 
(and (>= x8 0) 
(and (<= c 4.1904516581) 
(and (or (<= (+ x0 0.6290393278) x1) (or (<= (+ x1 0.2447328137) x0) (or (>= (- y0 0.9992539023) y1) (or (>= (- y1 0.8735907933) y0))))) 
(and (or (<= (+ x0 0.6290393278) x2) (or (<= (+ x2 0.9225782161) x0) (or (>= (- y0 0.9992539023) y2) (or (>= (- y2 0.7863832105) y0))))) 
(and (or (<= (+ x0 0.6290393278) x3) (or (<= (+ x3 0.8997646322) x0) (or (>= (- y0 0.9992539023) y3) (or (>= (- y3 0.4910729428) y0))))) 
(and (or (<= (+ x0 0.6290393278) x4) (or (<= (+ x4 0.1569270711) x0) (or (>= (- y0 0.9992539023) y4) (or (>= (- y4 0.4772006892) y0))))) 
(and (or (<= (+ x0 0.6290393278) x5) (or (<= (+ x5 0.5037475077) x0) (or (>= (- y0 0.9992539023) y5) (or (>= (- y5 0.2797594291) y0))))) 
(and (or (<= (+ x0 0.6290393278) x6) (or (<= (+ x6 0.9905891606) x0) (or (>= (- y0 0.9992539023) y6) (or (>= (- y6 0.269315848) y0))))) 
(and (or (<= (+ x0 0.6290393278) x7) (or (<= (+ x7 0.0552992449) x0) (or (>= (- y0 0.9992539023) y7) (or (>= (- y7 0.1181998665) y0))))) 
(and (or (<= (+ x0 0.6290393278) x8) (or (<= (+ x8 0.6968716629) x0) (or (>= (- y0 0.9992539023) y8) (or (>= (- y8 0.0997863171) y0))))) 
(and (or (<= (+ x1 0.2447328137) x2) (or (<= (+ x2 0.9225782161) x1) (or (>= (- y1 0.8735907933) y2) (or (>= (- y2 0.7863832105) y1))))) 
(and (or (<= (+ x1 0.2447328137) x3) (or (<= (+ x3 0.8997646322) x1) (or (>= (- y1 0.8735907933) y3) (or (>= (- y3 0.4910729428) y1))))) 
(and (or (<= (+ x1 0.2447328137) x4) (or (<= (+ x4 0.1569270711) x1) (or (>= (- y1 0.8735907933) y4) (or (>= (- y4 0.4772006892) y1))))) 
(and (or (<= (+ x1 0.2447328137) x5) (or (<= (+ x5 0.5037475077) x1) (or (>= (- y1 0.8735907933) y5) (or (>= (- y5 0.2797594291) y1))))) 
(and (or (<= (+ x1 0.2447328137) x6) (or (<= (+ x6 0.9905891606) x1) (or (>= (- y1 0.8735907933) y6) (or (>= (- y6 0.269315848) y1))))) 
(and (or (<= (+ x1 0.2447328137) x7) (or (<= (+ x7 0.0552992449) x1) (or (>= (- y1 0.8735907933) y7) (or (>= (- y7 0.1181998665) y1))))) 
(and (or (<= (+ x1 0.2447328137) x8) (or (<= (+ x8 0.6968716629) x1) (or (>= (- y1 0.8735907933) y8) (or (>= (- y8 0.0997863171) y1))))) 
(and (or (<= (+ x2 0.9225782161) x3) (or (<= (+ x3 0.8997646322) x2) (or (>= (- y2 0.7863832105) y3) (or (>= (- y3 0.4910729428) y2))))) 
(and (or (<= (+ x2 0.9225782161) x4) (or (<= (+ x4 0.1569270711) x2) (or (>= (- y2 0.7863832105) y4) (or (>= (- y4 0.4772006892) y2))))) 
(and (or (<= (+ x2 0.9225782161) x5) (or (<= (+ x5 0.5037475077) x2) (or (>= (- y2 0.7863832105) y5) (or (>= (- y5 0.2797594291) y2))))) 
(and (or (<= (+ x2 0.9225782161) x6) (or (<= (+ x6 0.9905891606) x2) (or (>= (- y2 0.7863832105) y6) (or (>= (- y6 0.269315848) y2))))) 
(and (or (<= (+ x2 0.9225782161) x7) (or (<= (+ x7 0.0552992449) x2) (or (>= (- y2 0.7863832105) y7) (or (>= (- y7 0.1181998665) y2))))) 
(and (or (<= (+ x2 0.9225782161) x8) (or (<= (+ x8 0.6968716629) x2) (or (>= (- y2 0.7863832105) y8) (or (>= (- y8 0.0997863171) y2))))) 
(and (or (<= (+ x3 0.8997646322) x4) (or (<= (+ x4 0.1569270711) x3) (or (>= (- y3 0.4910729428) y4) (or (>= (- y4 0.4772006892) y3))))) 
(and (or (<= (+ x3 0.8997646322) x5) (or (<= (+ x5 0.5037475077) x3) (or (>= (- y3 0.4910729428) y5) (or (>= (- y5 0.2797594291) y3))))) 
(and (or (<= (+ x3 0.8997646322) x6) (or (<= (+ x6 0.9905891606) x3) (or (>= (- y3 0.4910729428) y6) (or (>= (- y6 0.269315848) y3))))) 
(and (or (<= (+ x3 0.8997646322) x7) (or (<= (+ x7 0.0552992449) x3) (or (>= (- y3 0.4910729428) y7) (or (>= (- y7 0.1181998665) y3))))) 
(and (or (<= (+ x3 0.8997646322) x8) (or (<= (+ x8 0.6968716629) x3) (or (>= (- y3 0.4910729428) y8) (or (>= (- y8 0.0997863171) y3))))) 
(and (or (<= (+ x4 0.1569270711) x5) (or (<= (+ x5 0.5037475077) x4) (or (>= (- y4 0.4772006892) y5) (or (>= (- y5 0.2797594291) y4))))) 
(and (or (<= (+ x4 0.1569270711) x6) (or (<= (+ x6 0.9905891606) x4) (or (>= (- y4 0.4772006892) y6) (or (>= (- y6 0.269315848) y4))))) 
(and (or (<= (+ x4 0.1569270711) x7) (or (<= (+ x7 0.0552992449) x4) (or (>= (- y4 0.4772006892) y7) (or (>= (- y7 0.1181998665) y4))))) 
(and (or (<= (+ x4 0.1569270711) x8) (or (<= (+ x8 0.6968716629) x4) (or (>= (- y4 0.4772006892) y8) (or (>= (- y8 0.0997863171) y4))))) 
(and (or (<= (+ x5 0.5037475077) x6) (or (<= (+ x6 0.9905891606) x5) (or (>= (- y5 0.2797594291) y6) (or (>= (- y6 0.269315848) y5))))) 
(and (or (<= (+ x5 0.5037475077) x7) (or (<= (+ x7 0.0552992449) x5) (or (>= (- y5 0.2797594291) y7) (or (>= (- y7 0.1181998665) y5))))) 
(and (or (<= (+ x5 0.5037475077) x8) (or (<= (+ x8 0.6968716629) x5) (or (>= (- y5 0.2797594291) y8) (or (>= (- y8 0.0997863171) y5))))) 
(and (or (<= (+ x6 0.9905891606) x7) (or (<= (+ x7 0.0552992449) x6) (or (>= (- y6 0.269315848) y7) (or (>= (- y7 0.1181998665) y6))))) 
(and (or (<= (+ x6 0.9905891606) x8) (or (<= (+ x8 0.6968716629) x6) (or (>= (- y6 0.269315848) y8) (or (>= (- y8 0.0997863171) y6))))) 
(and (or (<= (+ x7 0.0552992449) x8) (or (<= (+ x8 0.6968716629) x7) (or (>= (- y7 0.1181998665) y8) (or (>= (- y8 0.0997863171) y7))))) ))))))))))))))))))))))))))))))))))))))))))))))))))))))))))))))))))))))))))))))))))))))))))))))))))))))))
(minimize c)
(check-sat)
(get-objectives)
(exit)
